db/data/29083313603595191121198970679026509.z3.out
-------------------
2500.301522421
